formal/hazard/model/design_smt2.smt2
; SMT-LIBv2 description generated by Yosys 0.44+39 (git sha1 4cddc1999, clang++ 14.0.0-1ubuntu1.1 -fPIC -O3)
; yosys-smt2-module hazard
(declare-sort |hazard_s| 0)
(declare-fun |hazard_is| (|hazard_s|) Bool)
(declare-fun |hazard#0| (|hazard_s|) Bool) ; \ex_mem_read
(declare-fun |hazard#1| (|hazard_s|) (_ BitVec 5)) ; \ex_rd_addr
(declare-fun |hazard#2| (|hazard_s|) (_ BitVec 5)) ; \id_rs1_addr
(define-fun |hazard#3| ((state |hazard_s|)) Bool (= (|hazard#1| state) (|hazard#2| state))) ; $eq$/home/zair/riscv-cpu/rtl/hazard.sv:25$14_Y
(declare-fun |hazard#4| (|hazard_s|) (_ BitVec 5)) ; \id_rs2_addr
(define-fun |hazard#5| ((state |hazard_s|)) Bool (= (|hazard#1| state) (|hazard#4| state))) ; $eq$/home/zair/riscv-cpu/rtl/hazard.sv:26$15_Y
(define-fun |hazard#6| ((state |hazard_s|)) Bool (or  (|hazard#3| state) false  (|hazard#5| state) false)) ; $logic_or$/home/zair/riscv-cpu/rtl/hazard.sv:25$16_Y
(define-fun |hazard#7| ((state |hazard_s|)) Bool (and (or  (|hazard#0| state) false) (or  (|hazard#6| state) false))) ; \stall
; yosys-smt2-output stall 1
; yosys-smt2-wire stall 1
(define-fun |hazard_n stall| ((state |hazard_s|)) Bool (|hazard#7| state))
(declare-fun |hazard#8| (|hazard_s|) Bool) ; \mem_wb_reg_write
; yosys-smt2-input mem_wb_reg_write 1
; yosys-smt2-wire mem_wb_reg_write 1
; yosys-smt2-witness {"offset": 0, "path": ["\\mem_wb_reg_write"], "smtname": "mem_wb_reg_write", "smtoffset": 0, "type": "input", "width": 1}
(define-fun |hazard_n mem_wb_reg_write| ((state |hazard_s|)) Bool (|hazard#8| state))
(declare-fun |hazard#9| (|hazard_s|) (_ BitVec 5)) ; \mem_wb_rd_addr
; yosys-smt2-input mem_wb_rd_addr 5
; yosys-smt2-wire mem_wb_rd_addr 5
; yosys-smt2-witness {"offset": 0, "path": ["\\mem_wb_rd_addr"], "smtname": "mem_wb_rd_addr", "smtoffset": 0, "type": "input", "width": 5}
(define-fun |hazard_n mem_wb_rd_addr| ((state |hazard_s|)) (_ BitVec 5) (|hazard#9| state))
; yosys-smt2-input id_rs2_addr 5
; yosys-smt2-wire id_rs2_addr 5
; yosys-smt2-witness {"offset": 0, "path": ["\\id_rs2_addr"], "smtname": "id_rs2_addr", "smtoffset": 0, "type": "input", "width": 5}
(define-fun |hazard_n id_rs2_addr| ((state |hazard_s|)) (_ BitVec 5) (|hazard#4| state))
; yosys-smt2-input id_rs1_addr 5
; yosys-smt2-wire id_rs1_addr 5
; yosys-smt2-witness {"offset": 0, "path": ["\\id_rs1_addr"], "smtname": "id_rs1_addr", "smtoffset": 0, "type": "input", "width": 5}
(define-fun |hazard_n id_rs1_addr| ((state |hazard_s|)) (_ BitVec 5) (|hazard#2| state))
(define-fun |hazard#10| ((state |hazard_s|)) Bool (distinct (|hazard#9| state) #b00000)) ; $ne$/home/zair/riscv-cpu/rtl/hazard.sv:32$22_Y
(define-fun |hazard#11| ((state |hazard_s|)) Bool (and (or  (|hazard#8| state) false) (or  (|hazard#10| state) false))) ; $logic_and$/home/zair/riscv-cpu/rtl/hazard.sv:32$23_Y
(define-fun |hazard#12| ((state |hazard_s|)) Bool (= (|hazard#9| state) (|hazard#4| state))) ; $eq$/home/zair/riscv-cpu/rtl/hazard.sv:39$34_Y
(define-fun |hazard#13| ((state |hazard_s|)) Bool (and (or  (|hazard#11| state) false) (or  (|hazard#12| state) false))) ; $logic_and$/home/zair/riscv-cpu/rtl/hazard.sv:38$35_Y
(define-fun |hazard#14| ((state |hazard_s|)) (_ BitVec 1) (ite (|hazard#13| state) #b1 #b0)) ; $auto$wreduce.cc:461:run$57 [0]
(declare-fun |hazard#15| (|hazard_s|) Bool) ; \ex_mem_reg_write
(declare-fun |hazard#16| (|hazard_s|) (_ BitVec 5)) ; \ex_mem_rd_addr
(define-fun |hazard#17| ((state |hazard_s|)) Bool (distinct (|hazard#16| state) #b00000)) ; $ne$/home/zair/riscv-cpu/rtl/hazard.sv:30$18_Y
(define-fun |hazard#18| ((state |hazard_s|)) Bool (and (or  (|hazard#15| state) false) (or  (|hazard#17| state) false))) ; $logic_and$/home/zair/riscv-cpu/rtl/hazard.sv:30$19_Y
(define-fun |hazard#19| ((state |hazard_s|)) Bool (= (|hazard#16| state) (|hazard#4| state))) ; $eq$/home/zair/riscv-cpu/rtl/hazard.sv:37$30_Y
(define-fun |hazard#20| ((state |hazard_s|)) Bool (and (or  (|hazard#18| state) false) (or  (|hazard#19| state) false))) ; $logic_and$/home/zair/riscv-cpu/rtl/hazard.sv:36$31_Y
(define-fun |hazard#21| ((state |hazard_s|)) (_ BitVec 2) (ite (|hazard#20| state) #b10 (concat #b0 (|hazard#14| state)))) ; \fwd_sel_rs2
; yosys-smt2-output fwd_sel_rs2 2
; yosys-smt2-wire fwd_sel_rs2 2
(define-fun |hazard_n fwd_sel_rs2| ((state |hazard_s|)) (_ BitVec 2) (|hazard#21| state))
(define-fun |hazard#22| ((state |hazard_s|)) Bool (= (|hazard#9| state) (|hazard#2| state))) ; $eq$/home/zair/riscv-cpu/rtl/hazard.sv:33$24_Y
(define-fun |hazard#23| ((state |hazard_s|)) Bool (and (or  (|hazard#11| state) false) (or  (|hazard#22| state) false))) ; $logic_and$/home/zair/riscv-cpu/rtl/hazard.sv:32$25_Y
(define-fun |hazard#24| ((state |hazard_s|)) (_ BitVec 1) (ite (|hazard#23| state) #b1 #b0)) ; $auto$wreduce.cc:461:run$56 [0]
(define-fun |hazard#25| ((state |hazard_s|)) Bool (= (|hazard#16| state) (|hazard#2| state))) ; $eq$/home/zair/riscv-cpu/rtl/hazard.sv:31$20_Y
(define-fun |hazard#26| ((state |hazard_s|)) Bool (and (or  (|hazard#18| state) false) (or  (|hazard#25| state) false))) ; $logic_and$/home/zair/riscv-cpu/rtl/hazard.sv:30$21_Y
(define-fun |hazard#27| ((state |hazard_s|)) (_ BitVec 2) (ite (|hazard#26| state) #b10 (concat #b0 (|hazard#24| state)))) ; \fwd_sel_rs1
; yosys-smt2-output fwd_sel_rs1 2
; yosys-smt2-wire fwd_sel_rs1 2
(define-fun |hazard_n fwd_sel_rs1| ((state |hazard_s|)) (_ BitVec 2) (|hazard#27| state))
; yosys-smt2-input ex_rd_addr 5
; yosys-smt2-wire ex_rd_addr 5
; yosys-smt2-witness {"offset": 0, "path": ["\\ex_rd_addr"], "smtname": "ex_rd_addr", "smtoffset": 0, "type": "input", "width": 5}
(define-fun |hazard_n ex_rd_addr| ((state |hazard_s|)) (_ BitVec 5) (|hazard#1| state))
; yosys-smt2-input ex_mem_reg_write 1
; yosys-smt2-wire ex_mem_reg_write 1
; yosys-smt2-witness {"offset": 0, "path": ["\\ex_mem_reg_write"], "smtname": "ex_mem_reg_write", "smtoffset": 0, "type": "input", "width": 1}
(define-fun |hazard_n ex_mem_reg_write| ((state |hazard_s|)) Bool (|hazard#15| state))
; yosys-smt2-input ex_mem_read 1
; yosys-smt2-wire ex_mem_read 1
; yosys-smt2-witness {"offset": 0, "path": ["\\ex_mem_read"], "smtname": "ex_mem_read", "smtoffset": 0, "type": "input", "width": 1}
(define-fun |hazard_n ex_mem_read| ((state |hazard_s|)) Bool (|hazard#0| state))
; yosys-smt2-input ex_mem_rd_addr 5
; yosys-smt2-wire ex_mem_rd_addr 5
; yosys-smt2-witness {"offset": 0, "path": ["\\ex_mem_rd_addr"], "smtname": "ex_mem_rd_addr", "smtoffset": 0, "type": "input", "width": 5}
(define-fun |hazard_n ex_mem_rd_addr| ((state |hazard_s|)) (_ BitVec 5) (|hazard#16| state))
(define-fun |hazard_a| ((state |hazard_s|)) Bool true)
(define-fun |hazard_u| ((state |hazard_s|)) Bool true)
(define-fun |hazard_i| ((state |hazard_s|)) Bool true)
(define-fun |hazard_h| ((state |hazard_s|)) Bool true)
(define-fun |hazard_t| ((state |hazard_s|) (next_state |hazard_s|)) Bool true) ; end of module hazard
; yosys-smt2-module hazard_formal
(declare-sort |hazard_formal_s| 0)
(declare-fun |hazard_formal_is| (|hazard_formal_s|) Bool)
; yosys-smt2-cell hazard dut
; yosys-smt2-witness {"path": ["\\dut"], "smtname": "dut", "type": "cell"}
(declare-fun |hazard_formal#0| (|hazard_formal_s|) Bool) ; \stall
(declare-fun |hazard_formal#1| (|hazard_formal_s|) (_ BitVec 2)) ; \fwd_sel_rs2
(declare-fun |hazard_formal#2| (|hazard_formal_s|) (_ BitVec 2)) ; \fwd_sel_rs1
(declare-fun |hazard_formal_h dut| (|hazard_formal_s|) |hazard_s|)
; yosys-smt2-wire stall 1
(define-fun |hazard_formal_n stall| ((state |hazard_formal_s|)) Bool (|hazard_formal#0| state))
(declare-fun |hazard_formal#3| (|hazard_formal_s|) Bool) ; \rst
; yosys-smt2-input rst 1
; yosys-smt2-wire rst 1
; yosys-smt2-witness {"offset": 0, "path": ["\\rst"], "smtname": "rst", "smtoffset": 0, "type": "input", "width": 1}
(define-fun |hazard_formal_n rst| ((state |hazard_formal_s|)) Bool (|hazard_formal#3| state))
(declare-fun |hazard_formal#4| (|hazard_formal_s|) Bool) ; \mem_wb_reg_write
; yosys-smt2-input mem_wb_reg_write 1
; yosys-smt2-wire mem_wb_reg_write 1
; yosys-smt2-witness {"offset": 0, "path": ["\\mem_wb_reg_write"], "smtname": "mem_wb_reg_write", "smtoffset": 0, "type": "input", "width": 1}
(define-fun |hazard_formal_n mem_wb_reg_write| ((state |hazard_formal_s|)) Bool (|hazard_formal#4| state))
(declare-fun |hazard_formal#5| (|hazard_formal_s|) (_ BitVec 5)) ; \mem_wb_rd_addr
; yosys-smt2-input mem_wb_rd_addr 5
; yosys-smt2-wire mem_wb_rd_addr 5
; yosys-smt2-witness {"offset": 0, "path": ["\\mem_wb_rd_addr"], "smtname": "mem_wb_rd_addr", "smtoffset": 0, "type": "input", "width": 5}
(define-fun |hazard_formal_n mem_wb_rd_addr| ((state |hazard_formal_s|)) (_ BitVec 5) (|hazard_formal#5| state))
(declare-fun |hazard_formal#6| (|hazard_formal_s|) (_ BitVec 5)) ; \id_rs2_addr
; yosys-smt2-input id_rs2_addr 5
; yosys-smt2-wire id_rs2_addr 5
; yosys-smt2-witness {"offset": 0, "path": ["\\id_rs2_addr"], "smtname": "id_rs2_addr", "smtoffset": 0, "type": "input", "width": 5}
(define-fun |hazard_formal_n id_rs2_addr| ((state |hazard_formal_s|)) (_ BitVec 5) (|hazard_formal#6| state))
(declare-fun |hazard_formal#7| (|hazard_formal_s|) (_ BitVec 5)) ; \id_rs1_addr
; yosys-smt2-input id_rs1_addr 5
; yosys-smt2-wire id_rs1_addr 5
; yosys-smt2-witness {"offset": 0, "path": ["\\id_rs1_addr"], "smtname": "id_rs1_addr", "smtoffset": 0, "type": "input", "width": 5}
(define-fun |hazard_formal_n id_rs1_addr| ((state |hazard_formal_s|)) (_ BitVec 5) (|hazard_formal#7| state))
; yosys-smt2-wire fwd_sel_rs2 2
(define-fun |hazard_formal_n fwd_sel_rs2| ((state |hazard_formal_s|)) (_ BitVec 2) (|hazard_formal#1| state))
; yosys-smt2-wire fwd_sel_rs1 2
(define-fun |hazard_formal_n fwd_sel_rs1| ((state |hazard_formal_s|)) (_ BitVec 2) (|hazard_formal#2| state))
(declare-fun |hazard_formal#8| (|hazard_formal_s|) (_ BitVec 5)) ; \ex_rd_addr
; yosys-smt2-input ex_rd_addr 5
; yosys-smt2-wire ex_rd_addr 5
; yosys-smt2-witness {"offset": 0, "path": ["\\ex_rd_addr"], "smtname": "ex_rd_addr", "smtoffset": 0, "type": "input", "width": 5}
(define-fun |hazard_formal_n ex_rd_addr| ((state |hazard_formal_s|)) (_ BitVec 5) (|hazard_formal#8| state))
(declare-fun |hazard_formal#9| (|hazard_formal_s|) Bool) ; \ex_mem_reg_write
; yosys-smt2-input ex_mem_reg_write 1
; yosys-smt2-wire ex_mem_reg_write 1
; yosys-smt2-witness {"offset": 0, "path": ["\\ex_mem_reg_write"], "smtname": "ex_mem_reg_write", "smtoffset": 0, "type": "input", "width": 1}
(define-fun |hazard_formal_n ex_mem_reg_write| ((state |hazard_formal_s|)) Bool (|hazard_formal#9| state))
(declare-fun |hazard_formal#10| (|hazard_formal_s|) Bool) ; \ex_mem_read
; yosys-smt2-input ex_mem_read 1
; yosys-smt2-wire ex_mem_read 1
; yosys-smt2-witness {"offset": 0, "path": ["\\ex_mem_read"], "smtname": "ex_mem_read", "smtoffset": 0, "type": "input", "width": 1}
(define-fun |hazard_formal_n ex_mem_read| ((state |hazard_formal_s|)) Bool (|hazard_formal#10| state))
(declare-fun |hazard_formal#11| (|hazard_formal_s|) (_ BitVec 5)) ; \ex_mem_rd_addr
; yosys-smt2-input ex_mem_rd_addr 5
; yosys-smt2-wire ex_mem_rd_addr 5
; yosys-smt2-witness {"offset": 0, "path": ["\\ex_mem_rd_addr"], "smtname": "ex_mem_rd_addr", "smtoffset": 0, "type": "input", "width": 5}
(define-fun |hazard_formal_n ex_mem_rd_addr| ((state |hazard_formal_s|)) (_ BitVec 5) (|hazard_formal#11| state))
(declare-fun |hazard_formal#12| (|hazard_formal_s|) Bool) ; \clk
; yosys-smt2-input clk 1
; yosys-smt2-wire clk 1
; yosys-smt2-witness {"offset": 0, "path": ["\\clk"], "smtname": "clk", "smtoffset": 0, "type": "input", "width": 1}
(define-fun |hazard_formal_n clk| ((state |hazard_formal_s|)) Bool (|hazard_formal#12| state))
(define-fun |hazard_formal#13| ((state |hazard_formal_s|)) (_ BitVec 1) (ite (|hazard_formal#0| state) #b1 #b0)) ; \a_stall_only_on_load_use_EN
; yosys-smt2-wire a_stall_only_on_load_use_EN 1
(define-fun |hazard_formal_n a_stall_only_on_load_use_EN| ((state |hazard_formal_s|)) Bool (= ((_ extract 0 0) (|hazard_formal#13| state)) #b1))
(define-fun |hazard_formal#14| ((state |hazard_formal_s|)) Bool (or  (= ((_ extract 0 0) (|hazard_formal#1| state)) #b1) (= ((_ extract 1 1) (|hazard_formal#1| state)) #b1))) ; $ne$hazard_formal.sv:37$4_Y
(define-fun |hazard_formal#15| ((state |hazard_formal_s|)) (_ BitVec 1) (ite (|hazard_formal#14| state) #b1 #b0)) ; \a_no_fwd_x0_rs2_EN
; yosys-smt2-wire a_no_fwd_x0_rs2_EN 1
(define-fun |hazard_formal_n a_no_fwd_x0_rs2_EN| ((state |hazard_formal_s|)) Bool (= ((_ extract 0 0) (|hazard_formal#15| state)) #b1))
(define-fun |hazard_formal#16| ((state |hazard_formal_s|)) Bool (or  (= ((_ extract 0 0) (|hazard_formal#2| state)) #b1) (= ((_ extract 1 1) (|hazard_formal#2| state)) #b1))) ; $ne$hazard_formal.sv:36$2_Y
(define-fun |hazard_formal#17| ((state |hazard_formal_s|)) (_ BitVec 1) (ite (|hazard_formal#16| state) #b1 #b0)) ; \a_no_fwd_x0_rs1_EN
; yosys-smt2-wire a_no_fwd_x0_rs1_EN 1
(define-fun |hazard_formal_n a_no_fwd_x0_rs1_EN| ((state |hazard_formal_s|)) Bool (= ((_ extract 0 0) (|hazard_formal#17| state)) #b1))
(define-fun |hazard_formal#18| ((state |hazard_formal_s|)) Bool (= (|hazard_formal#2| state) #b01)) ; $eq$hazard_formal.sv:44$8_Y
(define-fun |hazard_formal#19| ((state |hazard_formal_s|)) (_ BitVec 1) (ite (|hazard_formal#18| state) #b1 #b0)) ; \a_memwb_fwd_rs1_valid_EN
; yosys-smt2-wire a_no_fwd_to_x0_memwb_EN 1
(define-fun |hazard_formal_n a_no_fwd_to_x0_memwb_EN| ((state |hazard_formal_s|)) Bool (= ((_ extract 0 0) (|hazard_formal#19| state)) #b1))
(define-fun |hazard_formal#20| ((state |hazard_formal_s|)) Bool (= (|hazard_formal#2| state) #b10)) ; $eq$hazard_formal.sv:40$6_Y
(define-fun |hazard_formal#21| ((state |hazard_formal_s|)) (_ BitVec 1) (ite (|hazard_formal#20| state) #b1 #b0)) ; \a_exmem_fwd_rs1_valid_EN
; yosys-smt2-wire a_no_fwd_to_x0_exmem_EN 1
(define-fun |hazard_formal_n a_no_fwd_to_x0_exmem_EN| ((state |hazard_formal_s|)) Bool (= ((_ extract 0 0) (|hazard_formal#21| state)) #b1))
(define-fun |hazard_formal#22| ((state |hazard_formal_s|)) Bool (= (|hazard_formal#1| state) #b01)) ; $eq$hazard_formal.sv:45$9_Y
(define-fun |hazard_formal#23| ((state |hazard_formal_s|)) (_ BitVec 1) (ite (|hazard_formal#22| state) #b1 #b0)) ; \a_memwb_fwd_rs2_valid_EN
; yosys-smt2-wire a_memwb_fwd_rs2_valid_EN 1
(define-fun |hazard_formal_n a_memwb_fwd_rs2_valid_EN| ((state |hazard_formal_s|)) Bool (= ((_ extract 0 0) (|hazard_formal#23| state)) #b1))
; yosys-smt2-wire a_memwb_fwd_rs1_valid_EN 1
(define-fun |hazard_formal_n a_memwb_fwd_rs1_valid_EN| ((state |hazard_formal_s|)) Bool (= ((_ extract 0 0) (|hazard_formal#19| state)) #b1))
(define-fun |hazard_formal#24| ((state |hazard_formal_s|)) Bool (= (|hazard_formal#1| state) #b10)) ; $eq$hazard_formal.sv:41$7_Y
(define-fun |hazard_formal#25| ((state |hazard_formal_s|)) (_ BitVec 1) (ite (|hazard_formal#24| state) #b1 #b0)) ; \a_exmem_fwd_rs2_valid_EN
; yosys-smt2-wire a_exmem_fwd_rs2_valid_EN 1
(define-fun |hazard_formal_n a_exmem_fwd_rs2_valid_EN| ((state |hazard_formal_s|)) Bool (= ((_ extract 0 0) (|hazard_formal#25| state)) #b1))
; yosys-smt2-wire a_exmem_fwd_rs1_valid_EN 1
(define-fun |hazard_formal_n a_exmem_fwd_rs1_valid_EN| ((state |hazard_formal_s|)) Bool (= ((_ extract 0 0) (|hazard_formal#21| state)) #b1))
; yosys-smt2-assert 0 a_stall_only_on_load_use
(define-fun |hazard_formal_a 0| ((state |hazard_formal_s|)) Bool (or (|hazard_formal#10| state) (not (= ((_ extract 0 0) (|hazard_formal#13| state)) #b1)))) ; a_stall_only_on_load_use
(define-fun |hazard_formal#26| ((state |hazard_formal_s|)) Bool (distinct (|hazard_formal#6| state) #b00000)) ; $ne$hazard_formal.sv:37$5_Y
; yosys-smt2-assert 1 a_no_fwd_x0_rs2
(define-fun |hazard_formal_a 1| ((state |hazard_formal_s|)) Bool (or (|hazard_formal#26| state) (not (= ((_ extract 0 0) (|hazard_formal#15| state)) #b1)))) ; a_no_fwd_x0_rs2
(define-fun |hazard_formal#27| ((state |hazard_formal_s|)) Bool (distinct (|hazard_formal#7| state) #b00000)) ; $ne$hazard_formal.sv:36$3_Y
; yosys-smt2-assert 2 a_no_fwd_x0_rs1
(define-fun |hazard_formal_a 2| ((state |hazard_formal_s|)) Bool (or (|hazard_formal#27| state) (not (= ((_ extract 0 0) (|hazard_formal#17| state)) #b1)))) ; a_no_fwd_x0_rs1
(define-fun |hazard_formal#28| ((state |hazard_formal_s|)) Bool (distinct (|hazard_formal#5| state) #b00000)) ; $ne$hazard_formal.sv:52$13_Y
; yosys-smt2-assert 3 a_no_fwd_to_x0_memwb
(define-fun |hazard_formal_a 3| ((state |hazard_formal_s|)) Bool (or (|hazard_formal#28| state) (not (= ((_ extract 0 0) (|hazard_formal#19| state)) #b1)))) ; a_no_fwd_to_x0_memwb
(define-fun |hazard_formal#29| ((state |hazard_formal_s|)) Bool (distinct (|hazard_formal#11| state) #b00000)) ; $ne$hazard_formal.sv:51$11_Y
; yosys-smt2-assert 4 a_no_fwd_to_x0_exmem
(define-fun |hazard_formal_a 4| ((state |hazard_formal_s|)) Bool (or (|hazard_formal#29| state) (not (= ((_ extract 0 0) (|hazard_formal#21| state)) #b1)))) ; a_no_fwd_to_x0_exmem
; yosys-smt2-assert 5 a_memwb_fwd_rs2_valid
(define-fun |hazard_formal_a 5| ((state |hazard_formal_s|)) Bool (or (|hazard_formal#4| state) (not (= ((_ extract 0 0) (|hazard_formal#23| state)) #b1)))) ; a_memwb_fwd_rs2_valid
; yosys-smt2-assert 6 a_memwb_fwd_rs1_valid
(define-fun |hazard_formal_a 6| ((state |hazard_formal_s|)) Bool (or (|hazard_formal#4| state) (not (= ((_ extract 0 0) (|hazard_formal#19| state)) #b1)))) ; a_memwb_fwd_rs1_valid
; yosys-smt2-assert 7 a_exmem_fwd_rs2_valid
(define-fun |hazard_formal_a 7| ((state |hazard_formal_s|)) Bool (or (|hazard_formal#9| state) (not (= ((_ extract 0 0) (|hazard_formal#25| state)) #b1)))) ; a_exmem_fwd_rs2_valid
; yosys-smt2-assert 8 a_exmem_fwd_rs1_valid
(define-fun |hazard_formal_a 8| ((state |hazard_formal_s|)) Bool (or (|hazard_formal#9| state) (not (= ((_ extract 0 0) (|hazard_formal#21| state)) #b1)))) ; a_exmem_fwd_rs1_valid
(define-fun |hazard_formal_a| ((state |hazard_formal_s|)) Bool (and
  (|hazard_formal_a 0| state)
  (|hazard_formal_a 1| state)
  (|hazard_formal_a 2| state)
  (|hazard_formal_a 3| state)
  (|hazard_formal_a 4| state)
  (|hazard_formal_a 5| state)
  (|hazard_formal_a 6| state)
  (|hazard_formal_a 7| state)
  (|hazard_formal_a 8| state)
  (|hazard_a| (|hazard_formal_h dut| state))
))
(define-fun |hazard_formal_u| ((state |hazard_formal_s|)) Bool 
  (|hazard_u| (|hazard_formal_h dut| state))
)
(define-fun |hazard_formal_i| ((state |hazard_formal_s|)) Bool 
  (|hazard_i| (|hazard_formal_h dut| state))
)
(define-fun |hazard_formal_h| ((state |hazard_formal_s|)) Bool (and
  (= (|hazard_formal_is| state) (|hazard_is| (|hazard_formal_h dut| state)))
  (= (|hazard_formal#0| state) (|hazard_n stall| (|hazard_formal_h dut| state))) ; hazard.stall
  (= (|hazard_formal#4| state) (|hazard_n mem_wb_reg_write| (|hazard_formal_h dut| state))) ; hazard.mem_wb_reg_write
  (= (|hazard_formal#5| state) (|hazard_n mem_wb_rd_addr| (|hazard_formal_h dut| state))) ; hazard.mem_wb_rd_addr
  (= (|hazard_formal#6| state) (|hazard_n id_rs2_addr| (|hazard_formal_h dut| state))) ; hazard.id_rs2_addr
  (= (|hazard_formal#7| state) (|hazard_n id_rs1_addr| (|hazard_formal_h dut| state))) ; hazard.id_rs1_addr
  (= (|hazard_formal#1| state) (|hazard_n fwd_sel_rs2| (|hazard_formal_h dut| state))) ; hazard.fwd_sel_rs2
  (= (|hazard_formal#2| state) (|hazard_n fwd_sel_rs1| (|hazard_formal_h dut| state))) ; hazard.fwd_sel_rs1
  (= (|hazard_formal#8| state) (|hazard_n ex_rd_addr| (|hazard_formal_h dut| state))) ; hazard.ex_rd_addr
  (= (|hazard_formal#9| state) (|hazard_n ex_mem_reg_write| (|hazard_formal_h dut| state))) ; hazard.ex_mem_reg_write
  (= (|hazard_formal#10| state) (|hazard_n ex_mem_read| (|hazard_formal_h dut| state))) ; hazard.ex_mem_read
  (= (|hazard_formal#11| state) (|hazard_n ex_mem_rd_addr| (|hazard_formal_h dut| state))) ; hazard.ex_mem_rd_addr
  (|hazard_h| (|hazard_formal_h dut| state))
))
(define-fun |hazard_formal_t| ((state |hazard_formal_s|) (next_state |hazard_formal_s|)) Bool 
  (|hazard_t| (|hazard_formal_h dut| state) (|hazard_formal_h dut| next_state))
) ; end of module hazard_formal
; yosys-smt2-topmod hazard_formal
; end of yosys output
